c colouring generated by benchmark framework
p edge 300 21633
v 1 47
v 2 7
v 3 15
v 4 9
v 5 0
v 6 51
v 7 4
v 8 26
v 9 51
v 10 53
v 11 43
v 12 0
v 13 24
v 14 2
v 15 4
v 16 48
v 17 22
v 18 19
v 19 37
v 20 46
v 21 29
v 22 11
v 23 52
v 24 33
v 25 12
v 26 31
v 27 6
v 28 23
v 29 20
v 30 42
v 31 35
v 32 1
v 33 21
v 34 7
v 35 11
v 36 9
v 37 35
v 38 30
v 39 21
v 40 23
v 41 29
v 42 38
v 43 12
v 44 31
v 45 52
v 46 32
v 47 11
v 48 22
v 49 3
v 50 39
v 51 36
v 52 2
v 53 48
v 54 30
v 55 24
v 56 33
v 57 26
v 58 9
v 59 14
v 60 10
v 61 14
v 62 21
v 63 18
v 64 14
v 65 2
v 66 5
v 67 15
v 68 9
v 69 25
v 70 21
v 71 35
v 72 51
v 73 0
v 74 41
v 75 7
v 76 41
v 77 21
v 78 38
v 79 16
v 80 33
v 81 14
v 82 26
v 83 31
v 84 17
v 85 50
v 86 28
v 87 16
v 88 20
v 89 13
v 90 32
v 91 30
v 92 39
v 93 5
v 94 13
v 95 3
v 96 7
v 97 30
v 98 32
v 99 20
v 100 26
v 101 11
v 102 5
v 103 2
v 104 3
v 105 44
v 106 41
v 107 37
v 108 37
v 109 15
v 110 39
v 111 14
v 112 10
v 113 33
v 114 6
v 115 36
v 116 0
v 117 24
v 118 14
v 119 0
v 120 15
v 121 22
v 122 39
v 123 52
v 124 1
v 125 27
v 126 5
v 127 50
v 128 20
v 129 21
v 130 3
v 131 29
v 132 38
v 133 45
v 134 44
v 135 5
v 136 17
v 137 7
v 138 50
v 139 4
v 140 10
v 141 42
v 142 22
v 143 13
v 144 4
v 145 18
v 146 20
v 147 19
v 148 15
v 149 25
v 150 27
v 151 18
v 152 11
v 153 8
v 154 18
v 155 20
v 156 49
v 157 25
v 158 5
v 159 13
v 160 6
v 161 10
v 162 26
v 163 10
v 164 31
v 165 6
v 166 44
v 167 13
v 168 16
v 169 32
v 170 28
v 171 13
v 172 24
v 173 18
v 174 30
v 175 10
v 176 44
v 177 8
v 178 1
v 179 53
v 180 11
v 181 1
v 182 29
v 183 42
v 184 6
v 185 22
v 186 2
v 187 1
v 188 8
v 189 15
v 190 21
v 191 36
v 192 28
v 193 40
v 194 1
v 195 21
v 196 3
v 197 23
v 198 5
v 199 23
v 200 14
v 201 18
v 202 12
v 203 8
v 204 17
v 205 3
v 206 4
v 207 2
v 208 27
v 209 19
v 210 13
v 211 47
v 212 46
v 213 23
v 214 24
v 215 27
v 216 35
v 217 18
v 218 8
v 219 19
v 220 22
v 221 12
v 222 22
v 223 12
v 224 53
v 225 34
v 226 48
v 227 49
v 228 34
v 229 10
v 230 27
v 231 11
v 232 24
v 233 9
v 234 27
v 235 25
v 236 15
v 237 35
v 238 36
v 239 24
v 240 10
v 241 31
v 242 7
v 243 17
v 244 19
v 245 9
v 246 4
v 247 25
v 248 19
v 249 29
v 250 48
v 251 40
v 252 38
v 253 23
v 254 3
v 255 33
v 256 0
v 257 7
v 258 29
v 259 45
v 260 8
v 261 4
v 262 33
v 263 47
v 264 20
v 265 40
v 266 50
v 267 21
v 268 34
v 269 43
v 270 2
v 271 11
v 272 47
v 273 28
v 274 0
v 275 26
v 276 12
v 277 40
v 278 9
v 279 36
v 280 7
v 281 39
v 282 3
v 283 6
v 284 16
v 285 28
v 286 25
v 287 1
v 288 45
v 289 25
v 290 16
v 291 49
v 292 17
v 293 37
v 294 17
v 295 46
v 296 9
v 297 17
v 298 28
v 299 41
v 300 2
